
1.0
6.50854847382331 0 0 
-3.25427423691166 5.63656832009343 0 
0 0 13.3500005099246 
C
28
Direct
-3.39328747489567e-13 -5.25712363136291e-13 0.627372274362851 
0.809528537370409 0.0476241223779522 0.627349659006655 
0.571428862852783 0.857147511280806 0.627319570285017 
0.380952521641917 0.904759963339507 0.627324209038565 
0.142852488718739 0.714281351572017 0.627319570285009 
0.952375877621722 0.761904414992145 0.627349659006659 
0.714284628361489 0.571430208070537 0.627330827452259 
0.523807441697886 0.619047478357828 0.627324209038567 
0.285718648428227 0.428571137146879 0.627319570285011 
0.0952400366603907 0.476192558302721 0.627324209038567 
0.857145579708934 0.285715371638711 0.627330827452259 
0.666666666666384 0.333333333333441 0.627301875715836 
0.428569791929487 0.142854420290697 0.627330827452263 
0.23809558500723 0.190471462628867 0.627349659006655 
-2.05140323926179e-15 -1.16264840737766e-13 0.372627725637184 
0.190471462629189 0.238095585007532 0.372650340993309 
0.142854420290613 0.428569791929487 0.372669172547771 
0.333333333333021 0.666666666666518 0.372698124284133 
0.285715371638635 0.857145579708928 0.37266917254777 
0.476192558302264 0.095240036660256 0.372675790961402 
0.42857113714658 0.285718648427933 0.372680429715022 
0.619047478357216 0.523807441697326 0.372675790961402 
0.571430208070158 0.714284628361337 0.372669172547771 
0.761904414992455 0.952375877621867 0.372650340993312 
0.714281351571769 0.142852488718772 0.372680429715021 
0.904759963339412 0.380952521641934 0.372675790961397 
0.85714751128051 0.571428862852685 0.372680429715022 
0.047624122378058 0.809528537370327 0.372650340993313 
