Assembled layers
1.0
  23.46690435485686 0.0 0.0
  -11.73345217742843 20.322935319485715 0.0
  0.0 0.0 16.76203703703704
C
546
Direct
0.0 0.0 0.2982931005910623 C
0.9963369963369964 0.0586080586080586 0.2982931005910623 C
0.05494505494505494 0.12087912087912088 0.2982931005910623 C
0.051282051282051266 0.17948717948717946 0.2982931005910623 C
0.10989010989010987 0.24175824175824176 0.2982931005910623 C
0.10622710622710621 0.30036630036630035 0.2982931005910623 C
0.1648351648351648 0.3626373626373626 0.2982931005910623 C
0.16117216117216113 0.42124542124542125 0.2982931005910623 C
0.21978021978021975 0.4835164835164835 0.2982931005910623 C
0.2161172161172161 0.5421245421245421 0.2982931005910623 C
0.2747252747252747 0.6043956043956044 0.2982931005910623 C
0.271062271062271 0.663003663003663 0.2982931005910623 C
0.3296703296703296 0.7252747252747253 0.2982931005910623 C
0.32600732600732596 0.7838827838827839 0.2982931005910623 C
0.3846153846153846 0.8461538461538461 0.2982931005910623 C
0.38095238095238093 0.9047619047619048 0.2982931005910623 C
0.4395604395604395 0.967032967032967 0.2982931005910623 C
0.4358974358974358 0.02564102564102555 0.2982931005910623 C
0.4945054945054944 0.08791208791208782 0.2982931005910623 C
0.49084249084249076 0.14652014652014644 0.2982931005910623 C
0.5494505494505494 0.20879120879120872 0.2982931005910623 C
0.5457875457875457 0.26739926739926734 0.2982931005910623 C
0.6043956043956044 0.3296703296703296 0.2982931005910623 C
0.6007326007326006 0.38827838827838823 0.2982931005910623 C
0.6593406593406592 0.4505494505494505 0.2982931005910623 C
0.6556776556776556 0.5091575091575091 0.2982931005910623 C
0.7142857142857142 0.5714285714285714 0.2982931005910623 C
0.7106227106227105 0.63003663003663 0.2982931005910623 C
0.7692307692307692 0.6923076923076923 0.2982931005910623 C
0.7655677655677654 0.7509157509157509 0.2982931005910623 C
0.824175824175824 0.8131868131868132 0.2982931005910623 C
0.8205128205128204 0.8717948717948718 0.2982931005910623 C
0.879120879120879 0.9340659340659341 0.2982931005910623 C
0.8754578754578755 0.9926739926739927 0.2982931005910623 C
0.934065934065934 0.05494505494505475 0.2982931005910623 C
0.9304029304029303 0.1135531135531136 0.2982931005910623 C
0.9890109890109888 0.17582417582417564 0.2982931005910623 C
0.9853479853479853 0.2344322344322345 0.2982931005910623 C
0.0439560439560438 0.29670329670329654 0.2982931005910623 C
0.04029304029304015 0.3553113553113554 0.2982931005910623 C
0.09890109890109877 0.41758241758241743 0.2982931005910623 C
0.09523809523809512 0.4761904761904763 0.2982931005910623 C
0.15384615384615374 0.5384615384615383 0.2982931005910623 C
0.1501831501831501 0.5970695970695972 0.2982931005910623 C
0.20879120879120872 0.6593406593406592 0.2982931005910623 C
0.20512820512820484 0.7179487179487181 0.2982931005910623 C
0.26373626373626347 0.7802197802197801 0.2982931005910623 C
0.2600732600732598 0.838827838827839 0.2982931005910623 C
0.31868131868131844 0.901098901098901 0.2982931005910623 C
0.3150183150183148 0.9597069597069599 0.2982931005910623 C
0.3736263736263734 0.0219780219780219 0.2982931005910623 C
0.36996336996336976 0.08058608058608074 0.2982931005910623 C
0.4285714285714284 0.1428571428571428 0.2982931005910623 C
0.42490842490842473 0.20146520146520164 0.2982931005910623 C
0.48351648351648335 0.2637362637362637 0.2982931005910623 C
0.4798534798534797 0.32234432234432253 0.2982931005910623 C
0.5384615384615383 0.3846153846153846 0.2982931005910623 C
0.5347985347985345 0.4432234432234434 0.2982931005910623 C
0.5934065934065931 0.5054945054945055 0.2982931005910623 C
0.5897435897435894 0.5641025641025643 0.2982931005910623 C
0.648351648351648 0.6263736263736264 0.2982931005910623 C
0.6446886446886444 0.6849816849816852 0.2982931005910623 C
0.703296703296703 0.7472527472527473 0.2982931005910623 C
0.6996336996336994 0.8058608058608061 0.2982931005910623 C
0.758241758241758 0.8681318681318682 0.2982931005910623 C
0.7545787545787541 0.9267399267399266 0.2982931005910623 C
0.813186813186813 0.989010989010989 0.2982931005910623 C
0.8095238095238091 0.04761904761904745 0.2982931005910623 C
0.8681318681318679 0.1098901098901095 0.2982931005910623 C
0.8644688644688641 0.1684981684981679 0.2982931005910623 C
0.9230769230769229 0.23076923076923084 0.2982931005910623 C
0.919413919413919 0.28937728937728924 0.2982931005910623 C
0.9780219780219777 0.3516483516483513 0.2982931005910623 C
0.9743589743589738 0.4102564102564097 0.2982931005910623 C
0.03296703296703285 0.4725274725274726 0.2982931005910623 C
0.0293040293040292 0.531135531135531 0.2982931005910623 C
0.0879120879120876 0.5934065934065931 0.2982931005910623 C
0.08424908424908395 0.6520146520146515 0.2982931005910623 C
0.14285714285714235 0.7142857142857144 0.2982931005910623 C
0.1391941391941387 0.7728937728937728 0.2982931005910623 C
0.19780219780219754 0.8351648351648349 0.2982931005910623 C
0.1941391941391939 0.8937728937728933 0.2982931005910623 C
0.2527472527472523 0.9560439560439562 0.2982931005910623 C
0.24908424908424864 0.0146520146520146 0.2982931005910623 C
0.3076923076923075 0.07692307692307665 0.2982931005910623 C
0.30402930402930384 0.13553113553113505 0.2982931005910623 C
0.36263736263736224 0.197802197802198 0.2982931005910623 C
0.3589743589743586 0.2564102564102564 0.2982931005910623 C
0.41758241758241743 0.31868131868131844 0.2982931005910623 C
0.4139194139194138 0.37728937728937684 0.2982931005910623 C
0.4725274725274722 0.4395604395604398 0.2982931005910623 C
0.46886446886446853 0.4981684981684982 0.2982931005910623 C
0.5274725274725269 0.5604395604395602 0.2982931005910623 C
0.5238095238095233 0.6190476190476186 0.2982931005910623 C
0.5824175824175821 0.6813186813186816 0.2982931005910623 C
0.5787545787545785 0.73992673992674 0.2982931005910623 C
0.6373626373626369 0.802197802197802 0.2982931005910623 C
0.6336996336996332 0.8608058608058604 0.2982931005910623 C
0.6923076923076921 0.9230769230769234 0.2982931005910623 C
0.6886446886446884 0.9816849816849818 0.2982931005910623 C
0.7472527472527468 0.0439560439560438 0.2982931005910623 C
0.7435897435897432 0.1025641025641022 0.2982931005910623 C
0.802197802197802 0.16483516483516514 0.2982931005910623 C
0.7985347985347984 0.22344322344322354 0.2982931005910623 C
0.8571428571428568 0.2857142857142856 0.2982931005910623 C
0.8534798534798531 0.344322344322344 0.2982931005910623 C
0.9120879120879115 0.4065934065934069 0.2982931005910623 C
0.9084249084249079 0.4652014652014653 0.2982931005910623 C
0.9670329670329667 0.5274725274725274 0.2982931005910623 C
0.9633699633699631 0.5860805860805858 0.2982931005910623 C
0.021978021978021456 0.6483516483516487 0.2982931005910623 C
0.018315018315017806 0.7069597069597071 0.2982931005910623 C
0.07692307692307665 0.7692307692307692 0.2982931005910623 C
0.073260073260073 0.8278388278388276 0.2982931005910623 C
0.1318681318681314 0.8901098901098905 0.2982931005910623 C
0.12820512820512775 0.9487179487179489 0.2982931005910623 C
0.18681318681318615 0.01098901098901095 0.2982931005910623 C
0.1831501831501825 0.06959706959706935 0.2982931005910623 C
0.24175824175824134 0.1318681318681323 0.2982931005910623 C
0.2380952380952377 0.1904761904761907 0.2982931005910623 C
0.2967032967032961 0.25274725274725274 0.2982931005910623 C
0.29304029304029244 0.31135531135531114 0.2982931005910623 C
0.3516483516483513 0.3736263736263741 0.2982931005910623 C
0.34798534798534764 0.4322344322344325 0.2982931005910623 C
0.40659340659340604 0.4945054945054945 0.2982931005910623 C
0.4029304029304024 0.5531135531135529 0.2982931005910623 C
0.46153846153846123 0.6153846153846159 0.2982931005910623 C
0.4578754578754576 0.6739926739926743 0.2982931005910623 C
0.516483516483516 0.7362637362637363 0.2982931005910623 C
0.5128205128205128 0.7948717948717956 0.2982931005910623 C
0.5714285714285707 0.8571428571428568 0.2982931005910623 C
0.5677655677655675 0.915750915750916 0.2982931005910623 C
0.6263736263736259 0.9780219780219781 0.2982931005910623 C
0.6227106227106227 0.0366300366300365 0.2982931005910623 C
0.6813186813186807 0.09890109890109855 0.2982931005910623 C
0.6776556776556775 0.15750915750915873 0.2982931005910623 C
0.7362637362637359 0.219780219780219 0.2982931005910623 C
0.7326007326007327 0.2783882783882792 0.2982931005910623 C
0.7912087912087906 0.3406593406593412 0.2982931005910623 C
0.7875457875457874 0.3992673992673996 0.2982931005910623 C
0.8461538461538458 0.4615384615384617 0.2982931005910623 C
0.8424908424908422 0.5201465201465201 0.2982931005910623 C
0.9010989010989006 0.5824175824175821 0.2982931005910623 C
0.8974358974358974 0.6410256410256423 0.2982931005910623 C
0.9560439560439553 0.7032967032967026 0.2982931005910623 C
0.9523809523809521 0.7619047619047628 0.2982931005910623 C
0.010989010989010062 0.8241758241758248 0.2982931005910623 C
0.0073260073260073 0.8827838827838832 0.2982931005910623 C
0.0659340659340657 0.9450549450549453 0.2982931005910623 C
0.06227106227106205 0.00366300366300365 0.2982931005910623 C
0.12087912087912045 0.0659340659340657 0.2982931005910623 C
0.1172161172161168 0.12454212454212588 0.2982931005910623 C
0.1758241758241752 0.18681318681318615 0.2982931005910623 C
0.17216117216117155 0.24542124542124633 0.2982931005910623 C
0.23076923076922995 0.3076923076923084 0.2982931005910623 C
0.2271062271062272 0.3663003663003668 0.2982931005910623 C
0.2857142857142847 0.4285714285714288 0.2982931005910623 C
0.28205128205128194 0.4871794871794872 0.2982931005910623 C
0.34065934065934034 0.5494505494505493 0.2982931005910623 C
0.3369963369963367 0.6080586080586095 0.2982931005910623 C
0.3956043956043951 0.6703296703296697 0.2982931005910623 C
0.39194139194139144 0.7289377289377299 0.2982931005910623 C
0.45054945054944984 0.791208791208792 0.2982931005910623 C
0.4468864468864471 0.8498168498168504 0.2982931005910623 C
0.5054945054945046 0.9120879120879124 0.2982931005910623 C
0.5018315018315018 0.9706959706959708 0.2982931005910623 C
0.5604395604395602 0.03296703296703285 0.2982931005910623 C
0.5567765567765566 0.09157509157509303 0.2982931005910623 C
0.615384615384615 0.1538461538461533 0.2982931005910623 C
0.6117216117216113 0.21245421245421348 0.2982931005910623 C
0.6703296703296697 0.2747252747252755 0.2982931005910623 C
0.6666666666666661 0.3333333333333339 0.2982931005910623 C
0.7252747252747245 0.395604395604396 0.2982931005910623 C
0.7216117216117217 0.4542124542124544 0.2982931005910623 C
0.7802197802197792 0.5164835164835164 0.2982931005910623 C
0.7765567765567765 0.5750915750915766 0.2982931005910623 C
0.8351648351648349 0.6373626373626369 0.2982931005910623 C
0.8315018315018312 0.695970695970697 0.2982931005910623 C
0.8901098901098896 0.7582417582417591 0.2982931005910623 C
0.886446886446886 0.8168498168498175 0.2982931005910623 C
0.9450549450549444 0.8791208791208796 0.2982931005910623 C
0.9413919413919407 0.937728937728938 0.2982931005910623 C
0.9377289377289377 0.9963369963369964 0.5 C
0.9340659340659341 0.054945054945054944 0.5 C
0.9926739926739927 0.1172161172161172 0.5 C
0.9890109890109889 0.1758241758241758 0.5 C
0.047619047619047616 0.23809523809523808 0.5 C
0.043956043956043925 0.2967032967032967 0.5 C
0.10256410256410256 0.358974358974359 0.5 C
0.09890109890109887 0.4175824175824176 0.5 C
0.15750915750915748 0.47985347985347976 0.5 C
0.1538461538461538 0.5384615384615384 0.5 C
0.21245421245421242 0.6007326007326007 0.5 C
0.20879120879120872 0.6593406593406593 0.5 C
0.26739926739926734 0.7216117216117216 0.5 C
0.2637362637362637 0.7802197802197802 0.5 C
0.32234432234432225 0.8424908424908425 0.5 C
0.3186813186813186 0.9010989010989011 0.5 C
0.3772893772893773 0.9633699633699634 0.5 C
0.3736263736263735 0.0219780219780219 0.5 C
0.4322344322344322 0.08424908424908417 0.5 C
0.4285714285714285 0.1428571428571428 0.5 C
0.48717948717948717 0.20512820512820507 0.5 C
0.48351648351648346 0.2637362637362637 0.5 C
0.542124542124542 0.32600732600732596 0.5 C
0.5384615384615383 0.3846153846153846 0.5 C
0.597069597069597 0.44688644688644685 0.5 C
0.5934065934065933 0.5054945054945055 0.5 C
0.6520146520146519 0.5677655677655677 0.5 C
0.6483516483516483 0.6263736263736264 0.5 C
0.7069597069597069 0.6886446886446886 0.5 C
0.7032967032967031 0.7472527472527473 0.5 C
0.7619047619047619 0.8095238095238095 0.5 C
0.7582417582417581 0.8681318681318682 0.5 C
0.8168498168498166 0.9304029304029302 0.5 C
0.8131868131868131 0.9890109890109888 0.5 C
0.8717948717948716 0.0512820512820511 0.5 C
0.8681318681318679 0.1098901098901095 0.5 C
0.9267399267399266 0.172161172161172 0.5 C
0.9230769230769229 0.2307692307692304 0.5 C
0.9816849816849815 0.2930402930402929 0.5 C
0.9780219780219779 0.3516483516483513 0.5 C
0.0366300366300365 0.4139194139194138 0.5 C
0.03296703296703285 0.4725274725274722 0.5 C
0.09157509157509147 0.5347985347985347 0.5 C
0.08791208791208782 0.5934065934065931 0.5 C
0.14652014652014644 0.6556776556776556 0.5 C
0.14285714285714257 0.714285714285714 0.5 C
0.2014652014652012 0.7765567765567765 0.5 C
0.19780219780219754 0.8351648351648349 0.5 C
0.25641025641025617 0.8974358974358974 0.5 C
0.2527472527472525 0.9560439560439558 0.5 C
0.31135531135531114 0.01831501831501825 0.5 C
0.3076923076923075 0.07692307692307665 0.5 C
0.3663003663003661 0.13919413919413914 0.5 C
0.36263736263736246 0.19780219780219754 0.5 C
0.4212454212454211 0.26007326007326004 0.5 C
0.41758241758241743 0.31868131868131844 0.5 C
0.47619047619047605 0.38095238095238093 0.5 C
0.4725274725274722 0.43956043956043933 0.5 C
0.5311355311355308 0.5018315018315018 0.5 C
0.5274725274725272 0.5604395604395602 0.5 C
0.5860805860805858 0.6227106227106227 0.5 C
0.5824175824175821 0.6813186813186811 0.5 C
0.6410256410256407 0.7435897435897436 0.5 C
0.6373626373626371 0.802197802197802 0.5 C
0.6959706959706959 0.864468864468865 0.5 C
0.6923076923076921 0.9230769230769229 0.5 C
0.7509157509157509 0.9853479853479854 0.5 C
0.747252747252747 0.0439560439560438 0.5 C
0.8058608058608059 0.10622710622710674 0.5 C
0.802197802197802 0.16483516483516514 0.5 C
0.8608058608058606 0.2271062271062272 0.5 C
0.8571428571428568 0.2857142857142856 0.5 C
0.9157509157509156 0.3479853479853485 0.5 C
0.912087912087912 0.4065934065934069 0.5 C
0.9706959706959706 0.468864468864469 0.5 C
0.9670329670329667 0.5274725274725274 0.5 C
0.025641025641025106 0.5897435897435903 0.5 C
0.021978021978021456 0.6483516483516487 0.5 C
0.0805860805860803 0.7106227106227108 0.5 C
0.07692307692307665 0.7692307692307692 0.5 C
0.13553113553113505 0.8315018315018321 0.5 C
0.1318681318681314 0.8901098901098905 0.5 C
0.19047619047619024 0.9523809523809526 0.5 C
0.1868131868131866 0.01098901098901095 0.5 C
0.245421245421245 0.07326007326007389 0.5 C
0.24175824175824134 0.1318681318681323 0.5 C
0.3003663003663002 0.19413919413919434 0.5 C
0.29670329670329654 0.25274725274725274 0.5 C
0.35531135531135494 0.3150183150183157 0.5 C
0.3516483516483513 0.3736263736263741 0.5 C
0.4102564102564097 0.4358974358974361 0.5 C
0.40659340659340604 0.4945054945054945 0.5 C
0.4652014652014649 0.5567765567765575 0.5 C
0.46153846153846123 0.6153846153846159 0.5 C
0.5201465201465196 0.6776556776556779 0.5 C
0.516483516483516 0.7362637362637363 0.5 C
0.5750915750915748 0.7985347985347993 0.5 C
0.5714285714285712 0.8571428571428577 0.5 C
0.6300366300366296 0.9194139194139197 0.5 C
0.6263736263736259 0.9780219780219781 0.5 C
0.6849816849816848 0.04029304029304104 0.5 C
0.6813186813186811 0.09890109890109944 0.5 C
0.7399267399267395 0.1611721611721615 0.5 C
0.7362637362637359 0.2197802197802199 0.5 C
0.7948717948717943 0.2820512820512828 0.5 C
0.7912087912087906 0.3406593406593412 0.5 C
0.8498168498168495 0.4029304029304033 0.5 C
0.8461538461538458 0.4615384615384617 0.5 C
0.9047619047619042 0.5238095238095246 0.5 C
0.9010989010989006 0.582417582417583 0.5 C
0.9597069597069594 0.6446886446886451 0.5 C
0.9560439560439558 0.7032967032967035 0.5 C
0.014652014652014156 0.7655677655677664 0.5 C
0.010989010989010506 0.8241758241758248 0.5 C
0.0695970695970689 0.8864468864468869 0.5 C
0.06593406593406526 0.9450549450549453 0.5 C
0.1245421245421241 0.007326007326008188 0.5 C
0.12087912087912045 0.06593406593406659 0.5 C
0.17948717948717885 0.12820512820512864 0.5 C
0.1758241758241752 0.18681318681318704 0.5 C
0.23443223443223404 0.24908424908424998 0.5 C
0.2307692307692304 0.3076923076923084 0.5 C
0.2893772893772888 0.3699633699633704 0.5 C
0.28571428571428514 0.4285714285714288 0.5 C
0.344322344322344 0.49084249084249176 0.5 C
0.34065934065934034 0.5494505494505502 0.5 C
0.39926739926739874 0.6117216117216122 0.5 C
0.3956043956043951 0.6703296703296706 0.5 C
0.4542124542124535 0.7326007326007327 0.5 C
0.45054945054944984 0.7912087912087911 0.5 C
0.5091575091575082 0.8534798534798531 0.5 C
0.505494505494505 0.9120879120879124 0.5 C
0.564102564102563 0.9743589743589745 0.5 C
0.5604395604395598 0.03296703296703285 0.5 C
0.6190476190476182 0.0952380952380949 0.5 C
0.615384615384615 0.1538461538461533 0.5 C
0.6739926739926729 0.21611721611721535 0.5 C
0.6703296703296697 0.2747252747252755 0.5 C
0.7289377289377281 0.3369963369963358 0.5 C
0.7252747252747249 0.395604395604396 0.5 C
0.7838827838827829 0.457875457875458 0.5 C
0.7802197802197797 0.5164835164835164 0.5 C
0.8388278388278381 0.5787545787545785 0.5 C
0.8351648351648344 0.6373626373626369 0.5 C
0.8937728937728928 0.6996336996336989 0.5 C
0.8901098901098892 0.7582417582417591 0.5 C
0.9487179487179476 0.8205128205128194 0.5 C
0.9450549450549448 0.8791208791208796 0.5 C
0.003663003663002762 0.9413919413919416 0.5 C
0.9999999999999996 0.0 0.5 C
0.0586080586080584 0.06227106227106205 0.5 C
0.05494505494505475 0.12087912087912045 0.5 C
0.11355311355311315 0.1831501831501825 0.5 C
0.1098901098901095 0.24175824175824268 0.5 C
0.1684981684981679 0.30402930402930295 0.5 C
0.16483516483516425 0.3626373626373631 0.5 C
0.22344322344322265 0.4249084249084252 0.5 C
0.2197802197802199 0.4835164835164836 0.5 C
0.2783882783882774 0.5457875457875456 0.5 C
0.27472527472527464 0.604395604395604 0.5 C
0.33333333333333304 0.6666666666666661 0.5 C
0.3296703296703294 0.7252747252747263 0.5 C
0.3882783882783878 0.7875457875457865 0.5 C
0.38461538461538414 0.8461538461538467 0.5 C
0.44322344322344254 0.9084249084249088 0.5 C
0.4395604395604398 0.9670329670329672 0.5 C
0.4981684981684973 0.0293040293040292 0.5 C
0.4945054945054945 0.0879120879120876 0.5 C
0.553113553113552 0.15018315018314965 0.5 C
0.5494505494505493 0.20879120879120983 0.5 C
0.6080586080586077 0.2710622710622701 0.5 C
0.604395604395604 0.3296703296703303 0.5 C
0.6630036630036624 0.3919413919413923 0.5 C
0.6593406593406588 0.4505494505494507 0.5 C
0.7179487179487172 0.5128205128205128 0.5 C
0.7142857142857144 0.5714285714285712 0.5 C
0.7728937728937719 0.6336996336996332 0.5 C
0.7692307692307692 0.6923076923076934 0.5 C
0.8278388278388276 0.7545787545787537 0.5 C
0.8241758241758239 0.8131868131868139 0.5 C
0.8827838827838823 0.8754578754578759 0.5 C
0.8791208791208787 0.9340659340659343 0.5 C
0.0 0.0 0.7017068994089377 C
0.9413919413919414 0.003663003663003664 0.7017068994089377 C
0.945054945054945 0.06593406593406594 0.7017068994089377 C
0.8864468864468864 0.0695970695970696 0.7017068994089377 C
0.8901098901098902 0.13186813186813187 0.7017068994089377 C
0.8315018315018315 0.13553113553113552 0.7017068994089377 C
0.8351648351648352 0.19780219780219782 0.7017068994089377 C
0.7765567765567766 0.20146520146520147 0.7017068994089377 C
0.7802197802197802 0.26373626373626374 0.7017068994089377 C
0.7216117216117217 0.26739926739926745 0.7017068994089377 C
0.7252747252747254 0.32967032967032966 0.7017068994089377 C
0.6666666666666667 0.33333333333333337 0.7017068994089377 C
0.6703296703296704 0.39560439560439564 0.7017068994089377 C
0.6117216117216118 0.3992673992673993 0.7017068994089377 C
0.6153846153846154 0.46153846153846156 0.7017068994089377 C
0.5567765567765568 0.4652014652014652 0.7017068994089377 C
0.5604395604395604 0.5274725274725275 0.7017068994089377 C
0.5018315018315019 0.5311355311355311 0.7017068994089377 C
0.5054945054945056 0.5934065934065934 0.7017068994089377 C
0.44688644688644696 0.5970695970695971 0.7017068994089377 C
0.4505494505494506 0.6593406593406593 0.7017068994089377 C
0.391941391941392 0.663003663003663 0.7017068994089377 C
0.39560439560439564 0.7252747252747253 0.7017068994089377 C
0.33699633699633713 0.7289377289377289 0.7017068994089377 C
0.3406593406593408 0.7912087912087913 0.7017068994089377 C
0.28205128205128216 0.7948717948717949 0.7017068994089377 C
0.2857142857142858 0.8571428571428572 0.7017068994089377 C
0.2271062271062272 0.8608058608058609 0.7017068994089377 C
0.23076923076923084 0.9230769230769231 0.7017068994089377 C
0.17216117216117233 0.9267399267399268 0.7017068994089377 C
0.17582417582417598 0.989010989010989 0.7017068994089377 C
0.11721611721611735 0.9926739926739926 0.7017068994089377 C
0.120879120879121 0.05494505494505497 0.7017068994089377 C
0.06227106227106227 0.05860805860805862 0.7017068994089377 C
0.06593406593406603 0.1208791208791209 0.7017068994089377 C
0.007326007326007411 0.12454212454212454 0.7017068994089377 C
0.010989010989011172 0.18681318681318682 0.7017068994089377 C
0.9523809523809526 0.19047619047619047 0.7017068994089377 C
0.9560439560439562 0.25274725274725274 0.7017068994089377 C
0.8974358974358976 0.2564102564102564 0.7017068994089377 C
0.9010989010989012 0.31868131868131866 0.7017068994089377 C
0.8424908424908426 0.3223443223443223 0.7017068994089377 C
0.8461538461538463 0.3846153846153846 0.7017068994089377 C
0.7875457875457876 0.38827838827838823 0.7017068994089377 C
0.7912087912087913 0.4505494505494505 0.7017068994089377 C
0.7326007326007329 0.45421245421245415 0.7017068994089377 C
0.7362637362637365 0.5164835164835164 0.7017068994089377 C
0.6776556776556779 0.5201465201465201 0.7017068994089377 C
0.6813186813186816 0.5824175824175826 0.7017068994089377 C
0.6227106227106229 0.5860805860805862 0.7017068994089377 C
0.6263736263736266 0.6483516483516485 0.7017068994089377 C
0.567765567765568 0.6520146520146521 0.7017068994089377 C
0.5714285714285716 0.7142857142857144 0.7017068994089377 C
0.512820512820513 0.7179487179487181 0.7017068994089377 C
0.5164835164835166 0.7802197802197803 0.7017068994089377 C
0.457875457875458 0.783882783882784 0.7017068994089377 C
0.4615384615384617 0.8461538461538463 0.7017068994089377 C
0.4029304029304033 0.8498168498168499 0.7017068994089377 C
0.4065934065934069 0.9120879120879122 0.7017068994089377 C
0.3479853479853483 0.9157509157509158 0.7017068994089377 C
0.35164835164835195 0.9780219780219781 0.7017068994089377 C
0.29304029304029333 0.9816849816849815 0.7017068994089377 C
0.296703296703297 0.0439560439560438 0.7017068994089377 C
0.23809523809523836 0.047619047619047894 0.7017068994089377 C
0.241758241758242 0.10989010989010994 0.7017068994089377 C
0.1831501831501836 0.1135531135531136 0.7017068994089377 C
0.18681318681318704 0.1758241758241761 0.7017068994089377 C
0.12820512820512864 0.17948717948717974 0.7017068994089377 C
0.13186813186813207 0.2417582417582418 0.7017068994089377 C
0.07326007326007367 0.24542124542124544 0.7017068994089377 C
0.0769230769230771 0.30769230769230793 0.7017068994089377 C
0.018315018315018694 0.3113553113553116 0.7017068994089377 C
0.021978021978022344 0.37362637362637363 0.7017068994089377 C
0.9633699633699639 0.3772893772893773 0.7017068994089377 C
0.9670329670329672 0.4395604395604398 0.7017068994089377 C
0.9084249084249088 0.4432234432234434 0.7017068994089377 C
0.9120879120879124 0.5054945054945055 0.7017068994089377 C
0.853479853479854 0.5091575091575091 0.7017068994089377 C
0.8571428571428577 0.5714285714285716 0.7017068994089377 C
0.7985347985347993 0.5750915750915753 0.7017068994089377 C
0.8021978021978025 0.6373626373626373 0.7017068994089377 C
0.7435897435897441 0.641025641025641 0.7017068994089377 C
0.7472527472527477 0.7032967032967035 0.7017068994089377 C
0.6886446886446893 0.7069597069597071 0.7017068994089377 C
0.6923076923076925 0.7692307692307692 0.7017068994089377 C
0.6336996336996341 0.7728937728937728 0.7017068994089377 C
0.6373626373626378 0.8351648351648353 0.7017068994089377 C
0.5787545787545794 0.838827838827839 0.7017068994089377 C
0.5824175824175826 0.901098901098901 0.7017068994089377 C
0.5238095238095242 0.9047619047619047 0.7017068994089377 C
0.5274725274725278 0.9670329670329672 0.7017068994089377 C
0.4688644688644694 0.9706959706959708 0.7017068994089377 C
0.47252747252747307 0.03296703296703285 0.7017068994089377 C
0.41391941391941467 0.0366300366300365 0.7017068994089377 C
0.4175824175824179 0.098901098901099 0.7017068994089377 C
0.3589743589743595 0.10256410256410264 0.7017068994089377 C
0.3626373626373631 0.16483516483516514 0.7017068994089377 C
0.3040293040293047 0.1684981684981688 0.7017068994089377 C
0.30769230769230793 0.23076923076923084 0.7017068994089377 C
0.24908424908424953 0.2344322344322345 0.7017068994089377 C
0.2527472527472532 0.296703296703297 0.7017068994089377 C
0.19413919413919478 0.30036630036630063 0.7017068994089377 C
0.197802197802198 0.3626373626373627 0.7017068994089377 C
0.1391941391941396 0.36630036630036633 0.7017068994089377 C
0.14285714285714324 0.4285714285714288 0.7017068994089377 C
0.08424908424908484 0.4322344322344325 0.7017068994089377 C
0.08791208791208849 0.4945054945054945 0.7017068994089377 C
0.029304029304030088 0.4981684981684982 0.7017068994089377 C
0.032967032967033294 0.5604395604395607 0.7017068994089377 C
0.9743589743589749 0.5641025641025643 0.7017068994089377 C
0.9780219780219785 0.6263736263736264 0.7017068994089377 C
0.9194139194139201 0.63003663003663 0.7017068994089377 C
0.9230769230769234 0.6923076923076925 0.7017068994089377 C
0.864468864468865 0.6959706959706962 0.7017068994089377 C
0.8681318681318686 0.7582417582417582 0.7017068994089377 C
0.8095238095238102 0.7619047619047619 0.7017068994089377 C
0.8131868131868139 0.8241758241758244 0.7017068994089377 C
0.7545787545787555 0.827838827838828 0.7017068994089377 C
0.7582417582417587 0.8901098901098901 0.7017068994089377 C
0.6996336996337003 0.8937728937728937 0.7017068994089377 C
0.7032967032967039 0.9560439560439562 0.7017068994089377 C
0.6446886446886455 0.9597069597069599 0.7017068994089377 C
0.6483516483516487 0.0219780219780219 0.7017068994089377 C
0.5897435897435903 0.02564102564102555 0.7017068994089377 C
0.593406593406594 0.0879120879120876 0.7017068994089377 C
0.5347985347985356 0.09157509157509125 0.7017068994089377 C
0.5384615384615388 0.1538461538461542 0.7017068994089377 C
0.47985347985348037 0.15750915750915784 0.7017068994089377 C
0.483516483516484 0.2197802197802199 0.7017068994089377 C
0.4249084249084252 0.22344322344322443 0.7017068994089377 C
0.42857142857142927 0.2857142857142856 0.7017068994089377 C
0.3699633699633704 0.2893772893772901 0.7017068994089377 C
0.3736263736263741 0.3516483516483522 0.7017068994089377 C
0.31501831501831523 0.3553113553113558 0.7017068994089377 C
0.3186813186813193 0.4175824175824179 0.7017068994089377 C
0.2600732600732605 0.4212454212454215 0.7017068994089377 C
0.26373626373626413 0.4835164835164836 0.7017068994089377 C
0.2051282051282053 0.4871794871794881 0.7017068994089377 C
0.20879120879120938 0.5494505494505493 0.7017068994089377 C
0.15018315018315054 0.5531135531135538 0.7017068994089377 C
0.1538461538461542 0.6153846153846159 0.7017068994089377 C
0.09523809523809579 0.6190476190476195 0.7017068994089377 C
0.09890109890109944 0.6813186813186816 0.7017068994089377 C
0.040293040293040594 0.6849816849816852 0.7017068994089377 C
0.04395604395604469 0.7472527472527473 0.7017068994089377 C
0.9853479853479854 0.7509157509157518 0.7017068994089377 C
0.9890109890109899 0.813186813186813 0.7017068994089377 C
0.9304029304029307 0.8168498168498175 0.7017068994089377 C
0.9340659340659343 0.8791208791208796 0.7017068994089377 C
0.8754578754578759 0.8827838827838832 0.7017068994089377 C
0.8791208791208796 0.9450549450549453 0.7017068994089377 C
0.8205128205128212 0.9487179487179489 0.7017068994089377 C
0.8241758241758248 0.01098901098901095 0.7017068994089377 C
0.7655677655677664 0.014652014652015488 0.7017068994089377 C
0.76923076923077 0.07692307692307665 0.7017068994089377 C
0.7106227106227108 0.08058608058608119 0.7017068994089377 C
0.7142857142857153 0.14285714285714324 0.7017068994089377 C
0.655677655677656 0.1465201465201469 0.7017068994089377 C
0.6593406593406597 0.20879120879120894 0.7017068994089377 C
0.6007326007326013 0.21245421245421348 0.7017068994089377 C
0.6043956043956049 0.27472527472527464 0.7017068994089377 C
0.5457875457875465 0.2783882783882792 0.7017068994089377 C
0.5494505494505502 0.3406593406593412 0.7017068994089377 C
0.4908424908424909 0.3443223443223449 0.7017068994089377 C
0.4945054945054954 0.4065934065934069 0.7017068994089377 C
0.4358974358974361 0.4102564102564106 0.7017068994089377 C
0.4395604395604398 0.4725274725274726 0.7017068994089377 C
0.3809523809523814 0.47619047619047716 0.7017068994089377 C
0.384615384615385 0.5384615384615383 0.7017068994089377 C
0.3260073260073266 0.5421245421245429 0.7017068994089377 C
0.3296703296703303 0.6043956043956049 0.7017068994089377 C
0.2710622710622719 0.6080586080586086 0.7017068994089377 C
0.2747252747252755 0.6703296703296706 0.7017068994089377 C
0.21611721611721624 0.6739926739926743 0.7017068994089377 C
0.21978021978022078 0.7362637362637363 0.7017068994089377 C
0.1611721611721615 0.7399267399267409 0.7017068994089377 C
0.16483516483516514 0.802197802197802 0.7017068994089377 C
0.10622710622710674 0.8058608058608066 0.7017068994089377 C
0.10989010989011039 0.8681318681318686 0.7017068994089377 C
0.05128205128205199 0.8717948717948723 0.7017068994089377 C
0.05494505494505564 0.9340659340659343 0.7017068994089377 C
0.9963369963369972 0.937728937728938 0.7017068994089377 C
